% ============================================================================
% CLP Test Case: 20_10 (variant: 20_10)
% ============================================================================
% Source: JITS2022 Test Battery (Converted)
% Original file: buses_input_20_10.json
% Converted to CLP format with COHERENT SCALING:
%   - Energy (D, Cmax, Cmin, alpha): scaled by 1000 (1 unit = 0.001 kWh)
%   - Time (T, tau_bi, mu, SM, psi, beta): NO scaling (native minutes)
%
% CONVERSION DETAILS:
% - tau_bi: minutes since 00:00 (no scaling) - matches MiniZinc tbi range 0..3000
% - T: travel times (NO scaling - native integer minutes)
% - D: energy values scaled by 1000 (1 unit = 0.001 kWh)
% - Example: 420 minutes (07:00) = 420 (no scaling)
%           2.5 kWh -> 2500 (scaled by 1000)
%
% INTERPRETATION GUIDE:
%   - tau_bi / times: minutes (no conversion needed)
%   - Energy (D): integer_value / 1000 = kWh
%   - MiniZinc constraints use scaled units (energy in 0.001 kWh units)
% ============================================================================

% --- Problem Dimensions ---
num_buses = 6;
num_stations = 40;

% --- Energy Parameters (CLP Model) ---
% Scaled by 1000 (1 unit = 0.001 kWh)
Cmax = 100000;  % Maximum battery capacity (original: 100.0 kWh)
Cmin = 20000;   % Minimum reserve (original: 20.0 kWh)
alpha = 10000;  % Fast charging rate (original: 10.0 kWh/min)

% --- Time and Schedule Parameters ---
% NO SCALING - values are native minutes
mu = 5;      % Maximum delay (original: 5.0 min)
SM = 1;      % Safety margin (original: 1.0 min)
psi = 1;     % Minimum charging time (original: 1.0 min)
beta = 10;   % Maximum charging time (original: 10.0 min)
M = 5000;   % Big-M constant (based on max horizon: ~5000 min)

% --- Route Structure ---
max_stops = 504;
num_stops = [504, 504, 378, 314, 84, 84];

% --- Station Sequence (st_bi) ---
% Maps each bus stop to a physical station ID (1-indexed)
st_bi = array2d(1..6, 1..504, [
  1,2,3,4,5,6,7,8,9,10,11,12,13,14,15,16,17,18,19,20,20,21,22,23,24,25,26,27,28,29,30,31,32,33,34,35,36,37,38,39,40,1,1,2,3,4,5,6,7,8,9,10,11,12,13,14,15,16,17,18,19,20,20,21,22,23,24,25,26,27,28,29,30,31,32,33,34,35,36,37,38,39,40,1,1,2,3,4,5,6,7,8,9,10,11,12,13,14,15,16,17,18,19,20,20,21,22,23,24,25,26,27,28,29,30,31,32,33,34,35,36,37,38,39,40,1,1,2,3,4,5,6,7,8,9,10,11,12,13,14,15,16,17,18,19,20,20,21,22,23,24,25,26,27,28,29,30,31,32,33,34,35,36,37,38,39,40,1,1,2,3,4,5,6,7,8,9,10,11,12,13,14,15,16,17,18,19,20,20,21,22,23,24,25,26,27,28,29,30,31,32,33,34,35,36,37,38,39,40,1,1,2,3,4,5,6,7,8,9,10,11,12,13,14,15,16,17,18,19,20,20,21,22,23,24,25,26,27,28,29,30,31,32,33,34,35,36,37,38,39,40,1,1,2,3,4,5,6,7,8,9,10,11,12,13,14,15,16,17,18,19,20,20,21,22,23,24,25,26,27,28,29,30,31,32,33,34,35,36,37,38,39,40,1,1,2,3,4,5,6,7,8,9,10,11,12,13,14,15,16,17,18,19,20,20,21,22,23,24,25,26,27,28,29,30,31,32,33,34,35,36,37,38,39,40,1,1,2,3,4,5,6,7,8,9,10,11,12,13,14,15,16,17,18,19,20,20,21,22,23,24,25,26,27,28,29,30,31,32,33,34,35,36,37,38,39,40,1,1,2,3,4,5,6,7,8,9,10,11,12,13,14,15,16,17,18,19,20,20,21,22,23,24,25,26,27,28,29,30,31,32,33,34,35,36,37,38,39,40,1,1,2,3,4,5,6,7,8,9,10,11,12,13,14,15,16,17,18,19,20,20,21,22,23,24,25,26,27,28,29,30,31,32,33,34,35,36,37,38,39,40,1,1,2,3,4,5,6,7,8,9,10,11,12,13,14,15,16,17,18,19,20,20,21,22,23,24,25,26,27,28,29,30,31,32,33,34,35,36,37,38,39,40,1,  % Bus 1
  20,21,22,23,24,25,26,27,28,29,30,31,32,33,34,35,36,37,38,39,40,1,1,2,3,4,5,6,7,8,9,10,11,12,13,14,15,16,17,18,19,20,20,21,22,23,24,25,26,27,28,29,30,31,32,33,34,35,36,37,38,39,40,1,1,2,3,4,5,6,7,8,9,10,11,12,13,14,15,16,17,18,19,20,20,21,22,23,24,25,26,27,28,29,30,31,32,33,34,35,36,37,38,39,40,1,1,2,3,4,5,6,7,8,9,10,11,12,13,14,15,16,17,18,19,20,20,21,22,23,24,25,26,27,28,29,30,31,32,33,34,35,36,37,38,39,40,1,1,2,3,4,5,6,7,8,9,10,11,12,13,14,15,16,17,18,19,20,20,21,22,23,24,25,26,27,28,29,30,31,32,33,34,35,36,37,38,39,40,1,1,2,3,4,5,6,7,8,9,10,11,12,13,14,15,16,17,18,19,20,20,21,22,23,24,25,26,27,28,29,30,31,32,33,34,35,36,37,38,39,40,1,1,2,3,4,5,6,7,8,9,10,11,12,13,14,15,16,17,18,19,20,20,21,22,23,24,25,26,27,28,29,30,31,32,33,34,35,36,37,38,39,40,1,1,2,3,4,5,6,7,8,9,10,11,12,13,14,15,16,17,18,19,20,20,21,22,23,24,25,26,27,28,29,30,31,32,33,34,35,36,37,38,39,40,1,1,2,3,4,5,6,7,8,9,10,11,12,13,14,15,16,17,18,19,20,20,21,22,23,24,25,26,27,28,29,30,31,32,33,34,35,36,37,38,39,40,1,1,2,3,4,5,6,7,8,9,10,11,12,13,14,15,16,17,18,19,20,20,21,22,23,24,25,26,27,28,29,30,31,32,33,34,35,36,37,38,39,40,1,1,2,3,4,5,6,7,8,9,10,11,12,13,14,15,16,17,18,19,20,20,21,22,23,24,25,26,27,28,29,30,31,32,33,34,35,36,37,38,39,40,1,1,2,3,4,5,6,7,8,9,10,11,12,13,14,15,16,17,18,19,20,20,21,22,23,24,25,26,27,28,29,30,31,32,33,34,35,36,37,38,39,40,1,1,2,3,4,5,6,7,8,9,10,11,12,13,14,15,16,17,18,19,20,  % Bus 2
  1,2,3,4,5,6,7,8,9,10,11,12,13,14,15,16,17,18,19,20,20,21,22,23,24,25,26,27,28,29,30,31,32,33,34,35,36,37,38,39,40,1,1,2,3,4,5,6,7,8,9,10,11,12,13,14,15,16,17,18,19,20,20,21,22,23,24,25,26,27,28,29,30,31,32,33,34,35,36,37,38,39,40,1,1,2,3,4,5,6,7,8,9,10,11,12,13,14,15,16,17,18,19,20,20,21,22,23,24,25,26,27,28,29,30,31,32,33,34,35,36,37,38,39,40,1,1,2,3,4,5,6,7,8,9,10,11,12,13,14,15,16,17,18,19,20,20,21,22,23,24,25,26,27,28,29,30,31,32,33,34,35,36,37,38,39,40,1,1,2,3,4,5,6,7,8,9,10,11,12,13,14,15,16,17,18,19,20,20,21,22,23,24,25,26,27,28,29,30,31,32,33,34,35,36,37,38,39,40,1,1,2,3,4,5,6,7,8,9,10,11,12,13,14,15,16,17,18,19,20,20,21,22,23,24,25,26,27,28,29,30,31,32,33,34,35,36,37,38,39,40,1,1,2,3,4,5,6,7,8,9,10,11,12,13,14,15,16,17,18,19,20,20,21,22,23,24,25,26,27,28,29,30,31,32,33,34,35,36,37,38,39,40,1,1,2,3,4,5,6,7,8,9,10,11,12,13,14,15,16,17,18,19,20,20,21,22,23,24,25,26,27,28,29,30,31,32,33,34,35,36,37,38,39,40,1,1,2,3,4,5,6,7,8,9,10,11,12,13,14,15,16,17,18,19,20,20,21,22,23,24,25,26,27,28,29,30,31,32,33,34,35,36,37,38,39,40,1,1,1,1,1,1,1,1,1,1,1,1,1,1,1,1,1,1,1,1,1,1,1,1,1,1,1,1,1,1,1,1,1,1,1,1,1,1,1,1,1,1,1,1,1,1,1,1,1,1,1,1,1,1,1,1,1,1,1,1,1,1,1,1,1,1,1,1,1,1,1,1,1,1,1,1,1,1,1,1,1,1,1,1,1,1,1,1,1,1,1,1,1,1,1,1,1,1,1,1,1,1,1,1,1,1,1,1,1,1,1,1,1,1,1,1,1,1,1,1,1,1,1,1,1,1,1,  % Bus 3
  1,2,3,4,5,6,7,8,9,10,11,12,13,14,15,16,17,18,19,20,20,21,22,23,24,25,26,27,28,29,30,31,32,33,34,35,36,37,38,39,40,1,1,2,3,4,5,6,7,8,9,10,11,12,13,14,15,16,17,18,19,20,20,21,22,23,24,25,26,27,28,29,30,31,32,33,34,35,36,37,38,39,40,1,1,2,3,4,5,6,7,8,9,10,11,12,13,14,15,16,17,18,19,20,20,21,22,23,24,25,26,27,28,29,30,31,32,33,34,35,36,37,38,39,40,1,1,2,3,4,5,6,7,8,9,10,11,12,13,14,15,16,17,18,19,20,20,21,22,23,24,25,26,27,28,29,30,31,32,33,34,35,36,37,38,39,40,1,1,2,3,4,5,6,7,8,9,10,11,12,13,14,15,16,17,18,19,20,20,21,22,23,24,25,26,27,28,29,30,31,32,33,34,35,36,37,38,39,40,1,1,2,3,4,5,6,7,8,9,10,11,12,13,14,15,16,17,18,19,20,20,21,22,23,24,25,26,27,28,29,30,31,32,33,34,35,36,37,38,39,40,1,1,2,3,4,5,6,7,8,9,10,11,12,13,14,15,16,17,18,19,20,20,21,22,23,24,25,26,27,28,29,30,31,32,33,34,35,36,37,38,39,40,1,1,2,3,4,5,6,7,8,9,10,11,12,13,14,15,16,17,18,19,20,20,20,20,20,20,20,20,20,20,20,20,20,20,20,20,20,20,20,20,20,20,20,20,20,20,20,20,20,20,20,20,20,20,20,20,20,20,20,20,20,20,20,20,20,20,20,20,20,20,20,20,20,20,20,20,20,20,20,20,20,20,20,20,20,20,20,20,20,20,20,20,20,20,20,20,20,20,20,20,20,20,20,20,20,20,20,20,20,20,20,20,20,20,20,20,20,20,20,20,20,20,20,20,20,20,20,20,20,20,20,20,20,20,20,20,20,20,20,20,20,20,20,20,20,20,20,20,20,20,20,20,20,20,20,20,20,20,20,20,20,20,20,20,20,20,20,20,20,20,20,20,20,20,20,20,20,20,20,20,20,20,20,20,20,20,20,20,20,20,20,20,20,20,20,20,20,20,20,20,20,20,20,20,20,20,20,20,20,20,20,  % Bus 4
  20,21,22,23,24,25,26,27,28,29,30,31,32,33,34,35,36,37,38,39,40,1,1,2,3,4,5,6,7,8,9,10,11,12,13,14,15,16,17,18,19,20,20,21,22,23,24,25,26,27,28,29,30,31,32,33,34,35,36,37,38,39,40,1,1,2,3,4,5,6,7,8,9,10,11,12,13,14,15,16,17,18,19,20,20,20,20,20,20,20,20,20,20,20,20,20,20,20,20,20,20,20,20,20,20,20,20,20,20,20,20,20,20,20,20,20,20,20,20,20,20,20,20,20,20,20,20,20,20,20,20,20,20,20,20,20,20,20,20,20,20,20,20,20,20,20,20,20,20,20,20,20,20,20,20,20,20,20,20,20,20,20,20,20,20,20,20,20,20,20,20,20,20,20,20,20,20,20,20,20,20,20,20,20,20,20,20,20,20,20,20,20,20,20,20,20,20,20,20,20,20,20,20,20,20,20,20,20,20,20,20,20,20,20,20,20,20,20,20,20,20,20,20,20,20,20,20,20,20,20,20,20,20,20,20,20,20,20,20,20,20,20,20,20,20,20,20,20,20,20,20,20,20,20,20,20,20,20,20,20,20,20,20,20,20,20,20,20,20,20,20,20,20,20,20,20,20,20,20,20,20,20,20,20,20,20,20,20,20,20,20,20,20,20,20,20,20,20,20,20,20,20,20,20,20,20,20,20,20,20,20,20,20,20,20,20,20,20,20,20,20,20,20,20,20,20,20,20,20,20,20,20,20,20,20,20,20,20,20,20,20,20,20,20,20,20,20,20,20,20,20,20,20,20,20,20,20,20,20,20,20,20,20,20,20,20,20,20,20,20,20,20,20,20,20,20,20,20,20,20,20,20,20,20,20,20,20,20,20,20,20,20,20,20,20,20,20,20,20,20,20,20,20,20,20,20,20,20,20,20,20,20,20,20,20,20,20,20,20,20,20,20,20,20,20,20,20,20,20,20,20,20,20,20,20,20,20,20,20,20,20,20,20,20,20,20,20,20,20,20,20,20,20,20,20,20,20,20,20,20,20,20,20,20,20,20,20,20,20,20,20,20,20,20,20,20,20,20,20,20,20,20,20,20,20,20,20,20,20,20,20,20,20,20,20,20,20,20,20,20,20,20,20,20,  % Bus 5
  1,2,3,4,5,6,7,8,9,10,11,12,13,14,15,16,17,18,19,20,20,21,22,23,24,25,26,27,28,29,30,31,32,33,34,35,36,37,38,39,40,1,1,2,3,4,5,6,7,8,9,10,11,12,13,14,15,16,17,18,19,20,20,21,22,23,24,25,26,27,28,29,30,31,32,33,34,35,36,37,38,39,40,1,1,1,1,1,1,1,1,1,1,1,1,1,1,1,1,1,1,1,1,1,1,1,1,1,1,1,1,1,1,1,1,1,1,1,1,1,1,1,1,1,1,1,1,1,1,1,1,1,1,1,1,1,1,1,1,1,1,1,1,1,1,1,1,1,1,1,1,1,1,1,1,1,1,1,1,1,1,1,1,1,1,1,1,1,1,1,1,1,1,1,1,1,1,1,1,1,1,1,1,1,1,1,1,1,1,1,1,1,1,1,1,1,1,1,1,1,1,1,1,1,1,1,1,1,1,1,1,1,1,1,1,1,1,1,1,1,1,1,1,1,1,1,1,1,1,1,1,1,1,1,1,1,1,1,1,1,1,1,1,1,1,1,1,1,1,1,1,1,1,1,1,1,1,1,1,1,1,1,1,1,1,1,1,1,1,1,1,1,1,1,1,1,1,1,1,1,1,1,1,1,1,1,1,1,1,1,1,1,1,1,1,1,1,1,1,1,1,1,1,1,1,1,1,1,1,1,1,1,1,1,1,1,1,1,1,1,1,1,1,1,1,1,1,1,1,1,1,1,1,1,1,1,1,1,1,1,1,1,1,1,1,1,1,1,1,1,1,1,1,1,1,1,1,1,1,1,1,1,1,1,1,1,1,1,1,1,1,1,1,1,1,1,1,1,1,1,1,1,1,1,1,1,1,1,1,1,1,1,1,1,1,1,1,1,1,1,1,1,1,1,1,1,1,1,1,1,1,1,1,1,1,1,1,1,1,1,1,1,1,1,1,1,1,1,1,1,1,1,1,1,1,1,1,1,1,1,1,1,1,1,1,1,1,1,1,1,1,1,1,1,1,1,1,1,1,1,1,1,1,1,1,1,1,1,1,1,1,1,1,1,1,1,1,1,1,1,1,1,1,1,1,1,1,1,1,1,1,1,1,1,1,1,1,1,1,1,1,1,1,1  % Bus 6
]);

% --- Energy Consumption (D) ---
% Energy consumed between stops in kWh (INTEGER values scaled by 1000)
% To get actual kWh: divide by 1000
% Calculated from distance matrix: Energy = distance_km * 0.25 kWh/km
D = array2d(1..6, 1..504, [
  0,66,70,61,55,88,52,98,69,58,100,82,68,107,65,71,82,80,220,82,0,50,70,222,134,77,71,64,124,46,80,103,63,48,48,65,64,80,41,90,68,82,0,66,70,61,55,88,52,98,69,58,100,82,68,107,65,71,82,80,220,82,0,50,70,222,134,77,71,64,124,46,80,103,63,48,48,65,64,80,41,90,68,82,0,66,70,61,55,88,52,98,69,58,100,82,68,107,65,71,82,80,220,82,0,50,70,222,134,77,71,64,124,46,80,103,63,48,48,65,64,80,41,90,68,82,0,66,70,61,55,88,52,98,69,58,100,82,68,107,65,71,82,80,220,82,0,50,70,222,134,77,71,64,124,46,80,103,63,48,48,65,64,80,41,90,68,82,0,66,70,61,55,88,52,98,69,58,100,82,68,107,65,71,82,80,220,82,0,50,70,222,134,77,71,64,124,46,80,103,63,48,48,65,64,80,41,90,68,82,0,66,70,61,55,88,52,98,69,58,100,82,68,107,65,71,82,80,220,82,0,50,70,222,134,77,71,64,124,46,80,103,63,48,48,65,64,80,41,90,68,82,0,66,70,61,55,88,52,98,69,58,100,82,68,107,65,71,82,80,220,82,0,50,70,222,134,77,71,64,124,46,80,103,63,48,48,65,64,80,41,90,68,82,0,66,70,61,55,88,52,98,69,58,100,82,68,107,65,71,82,80,220,82,0,50,70,222,134,77,71,64,124,46,80,103,63,48,48,65,64,80,41,90,68,82,0,66,70,61,55,88,52,98,69,58,100,82,68,107,65,71,82,80,220,82,0,50,70,222,134,77,71,64,124,46,80,103,63,48,48,65,64,80,41,90,68,82,0,66,70,61,55,88,52,98,69,58,100,82,68,107,65,71,82,80,220,82,0,50,70,222,134,77,71,64,124,46,80,103,63,48,48,65,64,80,41,90,68,82,0,66,70,61,55,88,52,98,69,58,100,82,68,107,65,71,82,80,220,82,0,50,70,222,134,77,71,64,124,46,80,103,63,48,48,65,64,80,41,90,68,82,0,66,70,61,55,88,52,98,69,58,100,82,68,107,65,71,82,80,220,82,0,50,70,222,134,77,71,64,124,46,80,103,63,48,48,65,64,80,41,90,68,82,  % Bus 1
  0,50,70,222,134,77,71,64,124,46,80,103,63,48,48,65,64,80,41,90,68,82,0,66,70,61,55,88,52,98,69,58,100,82,68,107,65,71,82,80,220,82,0,50,70,222,134,77,71,64,124,46,80,103,63,48,48,65,64,80,41,90,68,82,0,66,70,61,55,88,52,98,69,58,100,82,68,107,65,71,82,80,220,82,0,50,70,222,134,77,71,64,124,46,80,103,63,48,48,65,64,80,41,90,68,82,0,66,70,61,55,88,52,98,69,58,100,82,68,107,65,71,82,80,220,82,0,50,70,222,134,77,71,64,124,46,80,103,63,48,48,65,64,80,41,90,68,82,0,66,70,61,55,88,52,98,69,58,100,82,68,107,65,71,82,80,220,82,0,50,70,222,134,77,71,64,124,46,80,103,63,48,48,65,64,80,41,90,68,82,0,66,70,61,55,88,52,98,69,58,100,82,68,107,65,71,82,80,220,82,0,50,70,222,134,77,71,64,124,46,80,103,63,48,48,65,64,80,41,90,68,82,0,66,70,61,55,88,52,98,69,58,100,82,68,107,65,71,82,80,220,82,0,50,70,222,134,77,71,64,124,46,80,103,63,48,48,65,64,80,41,90,68,82,0,66,70,61,55,88,52,98,69,58,100,82,68,107,65,71,82,80,220,82,0,50,70,222,134,77,71,64,124,46,80,103,63,48,48,65,64,80,41,90,68,82,0,66,70,61,55,88,52,98,69,58,100,82,68,107,65,71,82,80,220,82,0,50,70,222,134,77,71,64,124,46,80,103,63,48,48,65,64,80,41,90,68,82,0,66,70,61,55,88,52,98,69,58,100,82,68,107,65,71,82,80,220,82,0,50,70,222,134,77,71,64,124,46,80,103,63,48,48,65,64,80,41,90,68,82,0,66,70,61,55,88,52,98,69,58,100,82,68,107,65,71,82,80,220,82,0,50,70,222,134,77,71,64,124,46,80,103,63,48,48,65,64,80,41,90,68,82,0,66,70,61,55,88,52,98,69,58,100,82,68,107,65,71,82,80,220,82,0,50,70,222,134,77,71,64,124,46,80,103,63,48,48,65,64,80,41,90,68,82,0,66,70,61,55,88,52,98,69,58,100,82,68,107,65,71,82,80,220,82,  % Bus 2
  0,66,70,61,55,88,52,98,69,58,100,82,68,107,65,71,82,80,220,82,0,50,70,222,134,77,71,64,124,46,80,103,63,48,48,65,64,80,41,90,68,82,0,66,70,61,55,88,52,98,69,58,100,82,68,107,65,71,82,80,220,82,0,50,70,222,134,77,71,64,124,46,80,103,63,48,48,65,64,80,41,90,68,82,0,66,70,61,55,88,52,98,69,58,100,82,68,107,65,71,82,80,220,82,0,50,70,222,134,77,71,64,124,46,80,103,63,48,48,65,64,80,41,90,68,82,0,66,70,61,55,88,52,98,69,58,100,82,68,107,65,71,82,80,220,82,0,50,70,222,134,77,71,64,124,46,80,103,63,48,48,65,64,80,41,90,68,82,0,66,70,61,55,88,52,98,69,58,100,82,68,107,65,71,82,80,220,82,0,50,70,222,134,77,71,64,124,46,80,103,63,48,48,65,64,80,41,90,68,82,0,66,70,61,55,88,52,98,69,58,100,82,68,107,65,71,82,80,220,82,0,50,70,222,134,77,71,64,124,46,80,103,63,48,48,65,64,80,41,90,68,82,0,66,70,61,55,88,52,98,69,58,100,82,68,107,65,71,82,80,220,82,0,50,70,222,134,77,71,64,124,46,80,103,63,48,48,65,64,80,41,90,68,82,0,66,70,61,55,88,52,98,69,58,100,82,68,107,65,71,82,80,220,82,0,50,70,222,134,77,71,64,124,46,80,103,63,48,48,65,64,80,41,90,68,82,0,66,70,61,55,88,52,98,69,58,100,82,68,107,65,71,82,80,220,82,0,50,70,222,134,77,71,64,124,46,80,103,63,48,48,65,64,80,41,90,68,82,0,0,0,0,0,0,0,0,0,0,0,0,0,0,0,0,0,0,0,0,0,0,0,0,0,0,0,0,0,0,0,0,0,0,0,0,0,0,0,0,0,0,0,0,0,0,0,0,0,0,0,0,0,0,0,0,0,0,0,0,0,0,0,0,0,0,0,0,0,0,0,0,0,0,0,0,0,0,0,0,0,0,0,0,0,0,0,0,0,0,0,0,0,0,0,0,0,0,0,0,0,0,0,0,0,0,0,0,0,0,0,0,0,0,0,0,0,0,0,0,0,0,0,0,0,0,  % Bus 3
  0,66,70,61,55,88,52,98,69,58,100,82,68,107,65,71,82,80,220,82,0,50,70,222,134,77,71,64,124,46,80,103,63,48,48,65,64,80,41,90,68,82,0,66,70,61,55,88,52,98,69,58,100,82,68,107,65,71,82,80,220,82,0,50,70,222,134,77,71,64,124,46,80,103,63,48,48,65,64,80,41,90,68,82,0,66,70,61,55,88,52,98,69,58,100,82,68,107,65,71,82,80,220,82,0,50,70,222,134,77,71,64,124,46,80,103,63,48,48,65,64,80,41,90,68,82,0,66,70,61,55,88,52,98,69,58,100,82,68,107,65,71,82,80,220,82,0,50,70,222,134,77,71,64,124,46,80,103,63,48,48,65,64,80,41,90,68,82,0,66,70,61,55,88,52,98,69,58,100,82,68,107,65,71,82,80,220,82,0,50,70,222,134,77,71,64,124,46,80,103,63,48,48,65,64,80,41,90,68,82,0,66,70,61,55,88,52,98,69,58,100,82,68,107,65,71,82,80,220,82,0,50,70,222,134,77,71,64,124,46,80,103,63,48,48,65,64,80,41,90,68,82,0,66,70,61,55,88,52,98,69,58,100,82,68,107,65,71,82,80,220,82,0,50,70,222,134,77,71,64,124,46,80,103,63,48,48,65,64,80,41,90,68,82,0,66,70,61,55,88,52,98,69,58,100,82,68,107,65,71,82,80,220,82,0,0,0,0,0,0,0,0,0,0,0,0,0,0,0,0,0,0,0,0,0,0,0,0,0,0,0,0,0,0,0,0,0,0,0,0,0,0,0,0,0,0,0,0,0,0,0,0,0,0,0,0,0,0,0,0,0,0,0,0,0,0,0,0,0,0,0,0,0,0,0,0,0,0,0,0,0,0,0,0,0,0,0,0,0,0,0,0,0,0,0,0,0,0,0,0,0,0,0,0,0,0,0,0,0,0,0,0,0,0,0,0,0,0,0,0,0,0,0,0,0,0,0,0,0,0,0,0,0,0,0,0,0,0,0,0,0,0,0,0,0,0,0,0,0,0,0,0,0,0,0,0,0,0,0,0,0,0,0,0,0,0,0,0,0,0,0,0,0,0,0,0,0,0,0,0,0,0,0,0,0,0,0,0,0,0,0,0,0,0,  % Bus 4
  0,50,70,222,134,77,71,64,124,46,80,103,63,48,48,65,64,80,41,90,68,82,0,66,70,61,55,88,52,98,69,58,100,82,68,107,65,71,82,80,220,82,0,50,70,222,134,77,71,64,124,46,80,103,63,48,48,65,64,80,41,90,68,82,0,66,70,61,55,88,52,98,69,58,100,82,68,107,65,71,82,80,220,82,0,0,0,0,0,0,0,0,0,0,0,0,0,0,0,0,0,0,0,0,0,0,0,0,0,0,0,0,0,0,0,0,0,0,0,0,0,0,0,0,0,0,0,0,0,0,0,0,0,0,0,0,0,0,0,0,0,0,0,0,0,0,0,0,0,0,0,0,0,0,0,0,0,0,0,0,0,0,0,0,0,0,0,0,0,0,0,0,0,0,0,0,0,0,0,0,0,0,0,0,0,0,0,0,0,0,0,0,0,0,0,0,0,0,0,0,0,0,0,0,0,0,0,0,0,0,0,0,0,0,0,0,0,0,0,0,0,0,0,0,0,0,0,0,0,0,0,0,0,0,0,0,0,0,0,0,0,0,0,0,0,0,0,0,0,0,0,0,0,0,0,0,0,0,0,0,0,0,0,0,0,0,0,0,0,0,0,0,0,0,0,0,0,0,0,0,0,0,0,0,0,0,0,0,0,0,0,0,0,0,0,0,0,0,0,0,0,0,0,0,0,0,0,0,0,0,0,0,0,0,0,0,0,0,0,0,0,0,0,0,0,0,0,0,0,0,0,0,0,0,0,0,0,0,0,0,0,0,0,0,0,0,0,0,0,0,0,0,0,0,0,0,0,0,0,0,0,0,0,0,0,0,0,0,0,0,0,0,0,0,0,0,0,0,0,0,0,0,0,0,0,0,0,0,0,0,0,0,0,0,0,0,0,0,0,0,0,0,0,0,0,0,0,0,0,0,0,0,0,0,0,0,0,0,0,0,0,0,0,0,0,0,0,0,0,0,0,0,0,0,0,0,0,0,0,0,0,0,0,0,0,0,0,0,0,0,0,0,0,0,0,0,0,0,0,0,0,0,0,0,0,0,0,0,0,0,0,0,0,0,0,0,0,0,0,0,0,0,0,0,0,0,0,0,0,0,0,0,0,0,0,0,0,0,0,0,0,0,0,0,  % Bus 5
  0,66,70,61,55,88,52,98,69,58,100,82,68,107,65,71,82,80,220,82,0,50,70,222,134,77,71,64,124,46,80,103,63,48,48,65,64,80,41,90,68,82,0,66,70,61,55,88,52,98,69,58,100,82,68,107,65,71,82,80,220,82,0,50,70,222,134,77,71,64,124,46,80,103,63,48,48,65,64,80,41,90,68,82,0,0,0,0,0,0,0,0,0,0,0,0,0,0,0,0,0,0,0,0,0,0,0,0,0,0,0,0,0,0,0,0,0,0,0,0,0,0,0,0,0,0,0,0,0,0,0,0,0,0,0,0,0,0,0,0,0,0,0,0,0,0,0,0,0,0,0,0,0,0,0,0,0,0,0,0,0,0,0,0,0,0,0,0,0,0,0,0,0,0,0,0,0,0,0,0,0,0,0,0,0,0,0,0,0,0,0,0,0,0,0,0,0,0,0,0,0,0,0,0,0,0,0,0,0,0,0,0,0,0,0,0,0,0,0,0,0,0,0,0,0,0,0,0,0,0,0,0,0,0,0,0,0,0,0,0,0,0,0,0,0,0,0,0,0,0,0,0,0,0,0,0,0,0,0,0,0,0,0,0,0,0,0,0,0,0,0,0,0,0,0,0,0,0,0,0,0,0,0,0,0,0,0,0,0,0,0,0,0,0,0,0,0,0,0,0,0,0,0,0,0,0,0,0,0,0,0,0,0,0,0,0,0,0,0,0,0,0,0,0,0,0,0,0,0,0,0,0,0,0,0,0,0,0,0,0,0,0,0,0,0,0,0,0,0,0,0,0,0,0,0,0,0,0,0,0,0,0,0,0,0,0,0,0,0,0,0,0,0,0,0,0,0,0,0,0,0,0,0,0,0,0,0,0,0,0,0,0,0,0,0,0,0,0,0,0,0,0,0,0,0,0,0,0,0,0,0,0,0,0,0,0,0,0,0,0,0,0,0,0,0,0,0,0,0,0,0,0,0,0,0,0,0,0,0,0,0,0,0,0,0,0,0,0,0,0,0,0,0,0,0,0,0,0,0,0,0,0,0,0,0,0,0,0,0,0,0,0,0,0,0,0,0,0,0,0,0,0,0,0,0,0,0,0,0,0,0,0,0,0,0,0,0,0,0,0,0,0,0,0  % Bus 6
]);

% --- Travel Time (T) ---
% Time between stops (scaled by 10 to preserve fractional minutes)
% Divide by 10 to get actual minutes
% Calculated using JITS2022 algorithm: T = distance / speed
T = array2d(1..6, 1..504, [
  0,4,2,2,2,2,2,2,2,2,2,2,2,2,2,2,2,2,2,2,1,1,1,2,2,2,2,2,2,2,2,2,2,1,1,1,2,2,2,2,2,5,1,4,2,2,2,2,2,2,2,2,2,2,2,2,2,2,2,2,2,2,1,1,1,2,2,2,2,2,2,2,2,2,2,1,1,1,2,2,2,2,2,5,1,4,2,2,2,2,2,2,2,2,2,2,2,2,2,2,2,2,2,2,30,1,1,2,2,2,2,2,2,2,2,2,2,1,1,1,2,2,2,2,2,5,1,4,2,2,2,2,2,2,2,2,2,2,2,2,2,2,2,2,2,2,1,1,1,2,2,2,2,2,2,2,2,2,2,1,1,1,2,2,2,2,2,5,1,4,2,2,2,2,2,2,2,2,2,2,2,2,2,2,2,2,2,2,30,1,1,2,2,2,2,2,2,2,2,2,2,1,1,1,2,2,2,2,2,5,1,4,2,2,2,2,2,2,2,2,2,2,2,2,2,2,2,2,2,2,1,1,1,2,2,2,2,2,2,2,2,2,2,1,1,1,2,2,2,2,2,5,1,4,2,2,2,2,2,2,2,2,2,2,2,2,2,2,2,2,2,2,30,1,1,2,2,2,2,2,2,2,2,2,2,1,1,1,2,2,2,2,2,5,1,4,2,2,2,2,2,2,2,2,2,2,2,2,2,2,2,2,2,2,1,1,1,2,2,2,2,2,2,2,2,2,2,1,1,1,2,2,2,2,2,5,1,2,2,2,2,2,2,2,2,2,2,1,1,1,1,1,1,1,1,2,40,1,1,1,1,1,1,1,1,1,1,1,1,1,1,1,2,2,2,2,2,5,1,2,2,2,2,2,2,2,2,2,2,1,1,1,1,1,1,1,1,2,1,1,1,1,1,1,1,1,1,1,1,1,1,1,1,1,2,2,2,2,2,5,1,2,2,2,2,2,2,2,2,2,2,1,1,1,1,1,1,1,1,2,40,1,1,1,1,1,1,1,1,1,1,1,1,1,1,1,2,2,2,2,2,5,1,2,2,2,2,2,2,2,2,2,2,1,1,1,1,1,1,1,1,2,1,1,1,1,1,1,1,1,1,1,1,1,1,1,1,1,2,2,2,2,2,5,  % Bus 1
  0,1,1,1,1,1,1,1,1,1,1,1,1,1,1,1,2,2,2,2,2,5,1,4,2,2,2,2,2,2,2,2,2,2,2,2,2,2,2,2,2,2,1,1,1,2,2,2,2,2,2,2,2,2,2,1,1,1,2,2,2,2,2,5,1,4,2,2,2,2,2,2,2,2,2,2,2,2,2,2,2,2,2,2,1,1,1,2,2,2,2,2,2,2,2,2,2,1,1,1,2,2,2,2,2,5,30,4,2,2,2,2,2,2,2,2,2,2,2,2,2,2,2,2,2,2,1,1,1,2,2,2,2,2,2,2,2,2,2,1,1,1,2,2,2,2,2,5,1,4,2,2,2,2,2,2,2,2,2,2,2,2,2,2,2,2,2,2,1,1,1,2,2,2,2,2,2,2,2,2,2,1,1,1,2,2,2,2,2,5,30,4,2,2,2,2,2,2,2,2,2,2,2,2,2,2,2,2,2,2,1,1,1,2,2,2,2,2,2,2,2,2,2,1,1,1,2,2,2,2,2,5,1,4,2,2,2,2,2,2,2,2,2,2,2,2,2,2,2,2,2,2,1,1,1,2,2,2,2,2,2,2,2,2,2,1,1,1,2,2,2,2,2,5,30,4,2,2,2,2,2,2,2,2,2,2,2,2,2,2,2,2,2,2,1,1,1,2,2,2,2,2,2,2,2,2,2,1,1,1,2,2,2,2,2,5,1,4,2,2,2,2,2,2,2,2,2,2,2,2,2,2,2,2,2,2,1,1,1,1,1,1,1,1,1,1,1,1,1,1,1,1,2,2,2,2,2,5,40,2,2,2,2,2,2,2,2,2,2,1,1,1,1,1,1,1,1,2,1,1,1,1,1,1,1,1,1,1,1,1,1,1,1,1,2,2,2,2,2,5,1,2,2,2,2,2,2,2,2,2,2,1,1,1,1,1,1,1,1,2,1,1,1,1,1,1,1,1,1,1,1,1,1,1,1,1,2,2,2,2,2,5,40,2,2,2,2,2,2,2,2,2,2,1,1,1,1,1,1,1,1,2,1,1,1,1,1,1,1,1,1,1,1,1,1,1,1,1,2,2,2,2,2,5,1,2,2,2,2,2,2,2,2,2,2,1,1,1,1,1,1,1,1,2,  % Bus 2
  0,4,2,2,2,2,2,2,2,2,2,2,2,2,2,2,2,2,2,2,1,1,1,2,2,2,2,2,2,2,2,2,2,1,1,1,2,2,2,2,2,5,1,4,2,2,2,2,2,2,2,2,2,2,2,2,2,2,2,2,2,2,1,1,1,2,2,2,2,2,2,2,2,2,2,1,1,1,2,2,2,2,2,5,1,4,2,2,2,2,2,2,2,2,2,2,2,2,2,2,2,2,2,2,30,1,1,2,2,2,2,2,2,2,2,2,2,1,1,1,2,2,2,2,2,5,1,4,2,2,2,2,2,2,2,2,2,2,2,2,2,2,2,2,2,2,1,1,1,2,2,2,2,2,2,2,2,2,2,1,1,1,2,2,2,2,2,5,1,4,2,2,2,2,2,2,2,2,2,2,2,2,2,2,2,2,2,2,30,1,1,2,2,2,2,2,2,2,2,2,2,1,1,1,2,2,2,2,2,5,1,4,2,2,2,2,2,2,2,2,2,2,2,2,2,2,2,2,2,2,1,1,1,2,2,2,2,2,2,2,2,2,2,1,1,1,2,2,2,2,2,5,1,4,2,2,2,2,2,2,2,2,2,2,2,2,2,2,2,2,2,2,30,1,1,2,2,2,2,2,2,2,2,2,2,1,1,1,2,2,2,2,2,5,1,4,2,2,2,2,2,2,2,2,2,2,2,2,2,2,2,2,2,2,1,1,1,1,1,1,1,1,1,1,1,1,1,1,1,1,2,2,2,2,2,5,20,2,2,2,2,2,2,2,2,2,2,1,1,1,1,1,1,1,1,2,130,1,1,1,1,1,1,1,1,1,1,1,1,1,1,1,2,2,2,2,2,5,0,0,0,0,0,0,0,0,0,0,0,0,0,0,0,0,0,0,0,0,0,0,0,0,0,0,0,0,0,0,0,0,0,0,0,0,0,0,0,0,0,0,0,0,0,0,0,0,0,0,0,0,0,0,0,0,0,0,0,0,0,0,0,0,0,0,0,0,0,0,0,0,0,0,0,0,0,0,0,0,0,0,0,0,0,0,0,0,0,0,0,0,0,0,0,0,0,0,0,0,0,0,0,0,0,0,0,0,0,0,0,0,0,0,0,0,0,0,0,0,0,0,0,0,0,0,  % Bus 3
  0,4,2,2,2,2,2,2,2,2,2,2,2,2,2,2,2,2,2,2,1,1,1,2,2,2,2,2,2,2,2,2,2,1,1,1,2,2,2,2,2,5,1,4,2,2,2,2,2,2,2,2,2,2,2,2,2,2,2,2,2,2,1,1,1,2,2,2,2,2,2,2,2,2,2,1,1,1,2,2,2,2,2,5,20,4,2,2,2,2,2,2,2,2,2,2,2,2,2,2,2,2,2,2,90,1,1,2,2,2,2,2,2,2,2,2,2,1,1,1,2,2,2,2,2,5,20,4,2,2,2,2,2,2,2,2,2,2,2,2,2,2,2,2,2,2,1,1,1,2,2,2,2,2,2,2,2,2,2,1,1,1,2,2,2,2,2,5,1,4,2,2,2,2,2,2,2,2,2,2,2,2,2,2,2,2,2,2,30,1,1,2,2,2,2,2,2,2,2,2,2,1,1,1,2,2,2,2,2,5,1,4,2,2,2,2,2,2,2,2,2,2,2,2,2,2,2,2,2,2,1,1,1,2,2,2,2,2,2,2,2,2,2,1,1,1,2,2,2,2,2,5,1,2,2,2,2,2,2,2,2,2,2,1,1,1,1,1,1,1,1,2,30,1,1,1,1,1,1,1,1,1,1,1,1,1,1,1,2,2,2,2,2,5,120,2,2,2,2,2,2,2,2,2,2,1,1,1,1,1,1,1,1,2,0,0,0,0,0,0,0,0,0,0,0,0,0,0,0,0,0,0,0,0,0,0,0,0,0,0,0,0,0,0,0,0,0,0,0,0,0,0,0,0,0,0,0,0,0,0,0,0,0,0,0,0,0,0,0,0,0,0,0,0,0,0,0,0,0,0,0,0,0,0,0,0,0,0,0,0,0,0,0,0,0,0,0,0,0,0,0,0,0,0,0,0,0,0,0,0,0,0,0,0,0,0,0,0,0,0,0,0,0,0,0,0,0,0,0,0,0,0,0,0,0,0,0,0,0,0,0,0,0,0,0,0,0,0,0,0,0,0,0,0,0,0,0,0,0,0,0,0,0,0,0,0,0,0,0,0,0,0,0,0,0,0,0,0,0,0,0,0,0,0,0,0,0,0,0,0,0,0,0,0,0,0,0,0,0,0,0,0,0,0,  % Bus 4
  0,1,1,2,2,2,2,2,2,2,2,2,2,1,1,1,2,2,2,2,2,5,80,4,2,2,2,2,2,2,2,2,2,2,2,2,2,2,2,2,2,2,20,1,1,2,2,2,2,2,2,2,2,2,2,1,1,1,2,2,2,2,2,5,140,4,2,2,2,2,2,2,2,2,2,2,2,2,2,2,2,2,2,2,0,0,0,0,0,0,0,0,0,0,0,0,0,0,0,0,0,0,0,0,0,0,0,0,0,0,0,0,0,0,0,0,0,0,0,0,0,0,0,0,0,0,0,0,0,0,0,0,0,0,0,0,0,0,0,0,0,0,0,0,0,0,0,0,0,0,0,0,0,0,0,0,0,0,0,0,0,0,0,0,0,0,0,0,0,0,0,0,0,0,0,0,0,0,0,0,0,0,0,0,0,0,0,0,0,0,0,0,0,0,0,0,0,0,0,0,0,0,0,0,0,0,0,0,0,0,0,0,0,0,0,0,0,0,0,0,0,0,0,0,0,0,0,0,0,0,0,0,0,0,0,0,0,0,0,0,0,0,0,0,0,0,0,0,0,0,0,0,0,0,0,0,0,0,0,0,0,0,0,0,0,0,0,0,0,0,0,0,0,0,0,0,0,0,0,0,0,0,0,0,0,0,0,0,0,0,0,0,0,0,0,0,0,0,0,0,0,0,0,0,0,0,0,0,0,0,0,0,0,0,0,0,0,0,0,0,0,0,0,0,0,0,0,0,0,0,0,0,0,0,0,0,0,0,0,0,0,0,0,0,0,0,0,0,0,0,0,0,0,0,0,0,0,0,0,0,0,0,0,0,0,0,0,0,0,0,0,0,0,0,0,0,0,0,0,0,0,0,0,0,0,0,0,0,0,0,0,0,0,0,0,0,0,0,0,0,0,0,0,0,0,0,0,0,0,0,0,0,0,0,0,0,0,0,0,0,0,0,0,0,0,0,0,0,0,0,0,0,0,0,0,0,0,0,0,0,0,0,0,0,0,0,0,0,0,0,0,0,0,0,0,0,0,0,0,0,0,0,0,0,0,0,0,0,0,0,0,0,0,0,0,0,0,0,0,0,0,0,0,0,0,0,0,0,0,0,0,0,0,0,0,0,0,0,0,0,0,0,0,0,  % Bus 5
  0,4,2,2,2,2,2,2,2,2,2,2,2,2,2,2,2,2,2,2,40,1,1,2,2,2,2,2,2,2,2,2,2,1,1,1,2,2,2,2,2,5,60,4,2,2,2,2,2,2,2,2,2,2,2,2,2,2,2,2,2,2,120,1,1,2,2,2,2,2,2,2,2,2,2,1,1,1,2,2,2,2,2,5,0,0,0,0,0,0,0,0,0,0,0,0,0,0,0,0,0,0,0,0,0,0,0,0,0,0,0,0,0,0,0,0,0,0,0,0,0,0,0,0,0,0,0,0,0,0,0,0,0,0,0,0,0,0,0,0,0,0,0,0,0,0,0,0,0,0,0,0,0,0,0,0,0,0,0,0,0,0,0,0,0,0,0,0,0,0,0,0,0,0,0,0,0,0,0,0,0,0,0,0,0,0,0,0,0,0,0,0,0,0,0,0,0,0,0,0,0,0,0,0,0,0,0,0,0,0,0,0,0,0,0,0,0,0,0,0,0,0,0,0,0,0,0,0,0,0,0,0,0,0,0,0,0,0,0,0,0,0,0,0,0,0,0,0,0,0,0,0,0,0,0,0,0,0,0,0,0,0,0,0,0,0,0,0,0,0,0,0,0,0,0,0,0,0,0,0,0,0,0,0,0,0,0,0,0,0,0,0,0,0,0,0,0,0,0,0,0,0,0,0,0,0,0,0,0,0,0,0,0,0,0,0,0,0,0,0,0,0,0,0,0,0,0,0,0,0,0,0,0,0,0,0,0,0,0,0,0,0,0,0,0,0,0,0,0,0,0,0,0,0,0,0,0,0,0,0,0,0,0,0,0,0,0,0,0,0,0,0,0,0,0,0,0,0,0,0,0,0,0,0,0,0,0,0,0,0,0,0,0,0,0,0,0,0,0,0,0,0,0,0,0,0,0,0,0,0,0,0,0,0,0,0,0,0,0,0,0,0,0,0,0,0,0,0,0,0,0,0,0,0,0,0,0,0,0,0,0,0,0,0,0,0,0,0,0,0,0,0,0,0,0,0,0,0,0,0,0,0,0,0,0,0,0,0,0,0,0,0,0,0,0,0,0,0,0,0,0,0,0,0,0,0,0,0,0,0,0,0,0,0,0,0,0,0,0,0,0,0,0,0  % Bus 6
]);

% --- Original Timetable (tau_bi) ---
% Scheduled arrival times in MINUTES since 00:00 (no scaling)
% Consistent with MiniZinc tbi variable (0..3000 range)
tau_bi = array2d(1..6, 1..504, [
  420,424,426,428,430,432,434,436,438,440,442,444,446,448,450,452,454,456,458,460,460,461,462,464,466,468,470,472,474,476,478,480,482,483,484,485,487,489,491,493,495,500,500,504,506,508,510,512,514,516,518,520,522,524,526,528,530,532,534,536,538,540,540,541,542,544,546,548,550,552,554,556,558,560,562,563,564,565,567,569,571,573,575,580,580,584,586,588,590,592,594,596,598,600,602,604,606,608,610,612,614,616,618,620,640,641,642,644,646,648,650,652,654,656,658,660,662,663,664,665,667,669,671,673,675,680,680,684,686,688,690,692,694,696,698,700,702,704,706,708,710,712,714,716,718,720,720,721,722,724,726,728,730,732,734,736,738,740,742,743,744,745,747,749,751,753,755,760,760,764,766,768,770,772,774,776,778,780,782,784,786,788,790,792,794,796,798,800,820,821,822,824,826,828,830,832,834,836,838,840,842,843,844,845,847,849,851,853,855,860,860,864,866,868,870,872,874,876,878,880,882,884,886,888,890,892,894,896,898,900,900,901,902,904,906,908,910,912,914,916,918,920,922,923,924,925,927,929,931,933,935,940,940,944,946,948,950,952,954,956,958,960,962,964,966,968,970,972,974,976,978,980,1000,1001,1002,1004,1006,1008,1010,1012,1014,1016,1018,1020,1022,1023,1024,1025,1027,1029,1031,1033,1035,1040,1040,1044,1046,1048,1050,1052,1054,1056,1058,1060,1062,1064,1066,1068,1070,1072,1074,1076,1078,1080,1080,1081,1082,1084,1086,1088,1090,1092,1094,1096,1098,1100,1102,1103,1104,1105,1107,1109,1111,1113,1115,1120,1120,1122,1124,1126,1128,1130,1132,1134,1136,1138,1140,1141,1142,1143,1144,1145,1146,1147,1148,1150,1180,1181,1182,1183,1184,1185,1186,1187,1188,1189,1190,1191,1192,1193,1194,1195,1197,1199,1201,1203,1205,1210,1210,1212,1214,1216,1218,1220,1222,1224,1226,1228,1230,1231,1232,1233,1234,1235,1236,1237,1238,1240,1240,1241,1242,1243,1244,1245,1246,1247,1248,1249,1250,1251,1252,1253,1254,1255,1257,1259,1261,1263,1265,1270,1270,1272,1274,1276,1278,1280,1282,1284,1286,1288,1290,1291,1292,1293,1294,1295,1296,1297,1298,1300,1330,1331,1332,1333,1334,1335,1336,1337,1338,1339,1340,1341,1342,1343,1344,1345,1347,1349,1351,1353,1355,1360,1360,1362,1364,1366,1368,1370,1372,1374,1376,1378,1380,1381,1382,1383,1384,1385,1386,1387,1388,1390,1390,1391,1392,1393,1394,1395,1396,1397,1398,1399,1400,1401,1402,1403,1404,1405,1407,1409,1411,1413,1415,1420,  % Bus 1
  430,431,432,433,434,435,436,437,438,439,440,441,442,443,444,445,447,449,451,453,455,460,460,464,466,468,470,472,474,476,478,480,482,484,486,488,490,492,494,496,498,500,500,501,502,504,506,508,510,512,514,516,518,520,522,523,524,525,527,529,531,533,535,540,540,544,546,548,550,552,554,556,558,560,562,564,566,568,570,572,574,576,578,580,580,581,582,584,586,588,590,592,594,596,598,600,602,603,604,605,607,609,611,613,615,620,640,644,646,648,650,652,654,656,658,660,662,664,666,668,670,672,674,676,678,680,680,681,682,684,686,688,690,692,694,696,698,700,702,703,704,705,707,709,711,713,715,720,720,724,726,728,730,732,734,736,738,740,742,744,746,748,750,752,754,756,758,760,760,761,762,764,766,768,770,772,774,776,778,780,782,783,784,785,787,789,791,793,795,800,820,824,826,828,830,832,834,836,838,840,842,844,846,848,850,852,854,856,858,860,860,861,862,864,866,868,870,872,874,876,878,880,882,883,884,885,887,889,891,893,895,900,900,904,906,908,910,912,914,916,918,920,922,924,926,928,930,932,934,936,938,940,940,941,942,944,946,948,950,952,954,956,958,960,962,963,964,965,967,969,971,973,975,980,1000,1004,1006,1008,1010,1012,1014,1016,1018,1020,1022,1024,1026,1028,1030,1032,1034,1036,1038,1040,1040,1041,1042,1044,1046,1048,1050,1052,1054,1056,1058,1060,1062,1063,1064,1065,1067,1069,1071,1073,1075,1080,1080,1084,1086,1088,1090,1092,1094,1096,1098,1100,1102,1104,1106,1108,1110,1112,1114,1116,1118,1120,1120,1121,1122,1123,1124,1125,1126,1127,1128,1129,1130,1131,1132,1133,1134,1135,1137,1139,1141,1143,1145,1150,1180,1182,1184,1186,1188,1190,1192,1194,1196,1198,1200,1201,1202,1203,1204,1205,1206,1207,1208,1210,1210,1211,1212,1213,1214,1215,1216,1217,1218,1219,1220,1221,1222,1223,1224,1225,1227,1229,1231,1233,1235,1240,1240,1242,1244,1246,1248,1250,1252,1254,1256,1258,1260,1261,1262,1263,1264,1265,1266,1267,1268,1270,1270,1271,1272,1273,1274,1275,1276,1277,1278,1279,1280,1281,1282,1283,1284,1285,1287,1289,1291,1293,1295,1300,1330,1332,1334,1336,1338,1340,1342,1344,1346,1348,1350,1351,1352,1353,1354,1355,1356,1357,1358,1360,1360,1361,1362,1363,1364,1365,1366,1367,1368,1369,1370,1371,1372,1373,1374,1375,1377,1379,1381,1383,1385,1390,1390,1392,1394,1396,1398,1400,1402,1404,1406,1408,1410,1411,1412,1413,1414,1415,1416,1417,1418,1420,  % Bus 2
  440,444,446,448,450,452,454,456,458,460,462,464,466,468,470,472,474,476,478,480,480,481,482,484,486,488,490,492,494,496,498,500,502,503,504,505,507,509,511,513,515,520,520,524,526,528,530,532,534,536,538,540,542,544,546,548,550,552,554,556,558,560,560,561,562,564,566,568,570,572,574,576,578,580,582,583,584,585,587,589,591,593,595,600,600,604,606,608,610,612,614,616,618,620,622,624,626,628,630,632,634,636,638,640,660,661,662,664,666,668,670,672,674,676,678,680,682,683,684,685,687,689,691,693,695,700,700,704,706,708,710,712,714,716,718,720,722,724,726,728,730,732,734,736,738,740,740,741,742,744,746,748,750,752,754,756,758,760,762,763,764,765,767,769,771,773,775,780,780,784,786,788,790,792,794,796,798,800,802,804,806,808,810,812,814,816,818,820,840,841,842,844,846,848,850,852,854,856,858,860,862,863,864,865,867,869,871,873,875,880,880,884,886,888,890,892,894,896,898,900,902,904,906,908,910,912,914,916,918,920,920,921,922,924,926,928,930,932,934,936,938,940,942,943,944,945,947,949,951,953,955,960,960,964,966,968,970,972,974,976,978,980,982,984,986,988,990,992,994,996,998,1000,1020,1021,1022,1024,1026,1028,1030,1032,1034,1036,1038,1040,1042,1043,1044,1045,1047,1049,1051,1053,1055,1060,1060,1064,1066,1068,1070,1072,1074,1076,1078,1080,1082,1084,1086,1088,1090,1092,1094,1096,1098,1100,1100,1101,1102,1103,1104,1105,1106,1107,1108,1109,1110,1111,1112,1113,1114,1115,1117,1119,1121,1123,1125,1130,1150,1152,1154,1156,1158,1160,1162,1164,1166,1168,1170,1171,1172,1173,1174,1175,1176,1177,1178,1180,1300,1301,1302,1303,1304,1305,1306,1307,1308,1309,1310,1311,1312,1313,1314,1315,1317,1319,1321,1323,1325,1330,1330,1330,1330,1330,1330,1330,1330,1330,1330,1330,1330,1330,1330,1330,1330,1330,1330,1330,1330,1330,1330,1330,1330,1330,1330,1330,1330,1330,1330,1330,1330,1330,1330,1330,1330,1330,1330,1330,1330,1330,1330,1330,1330,1330,1330,1330,1330,1330,1330,1330,1330,1330,1330,1330,1330,1330,1330,1330,1330,1330,1330,1330,1330,1330,1330,1330,1330,1330,1330,1330,1330,1330,1330,1330,1330,1330,1330,1330,1330,1330,1330,1330,1330,1330,1330,1330,1330,1330,1330,1330,1330,1330,1330,1330,1330,1330,1330,1330,1330,1330,1330,1330,1330,1330,1330,1330,1330,1330,1330,1330,1330,1330,1330,1330,1330,1330,1330,1330,1330,1330,1330,1330,1330,1330,1330,1330,  % Bus 3
  480,484,486,488,490,492,494,496,498,500,502,504,506,508,510,512,514,516,518,520,520,521,522,524,526,528,530,532,534,536,538,540,542,543,544,545,547,549,551,553,555,560,560,564,566,568,570,572,574,576,578,580,582,584,586,588,590,592,594,596,598,600,600,601,602,604,606,608,610,612,614,616,618,620,622,623,624,625,627,629,631,633,635,640,660,664,666,668,670,672,674,676,678,680,682,684,686,688,690,692,694,696,698,700,780,781,782,784,786,788,790,792,794,796,798,800,802,803,804,805,807,809,811,813,815,820,840,844,846,848,850,852,854,856,858,860,862,864,866,868,870,872,874,876,878,880,880,881,882,884,886,888,890,892,894,896,898,900,902,903,904,905,907,909,911,913,915,920,920,924,926,928,930,932,934,936,938,940,942,944,946,948,950,952,954,956,958,960,980,981,982,984,986,988,990,992,994,996,998,1000,1002,1003,1004,1005,1007,1009,1011,1013,1015,1020,1020,1024,1026,1028,1030,1032,1034,1036,1038,1040,1042,1044,1046,1048,1050,1052,1054,1056,1058,1060,1060,1061,1062,1064,1066,1068,1070,1072,1074,1076,1078,1080,1082,1083,1084,1085,1087,1089,1091,1093,1095,1100,1100,1102,1104,1106,1108,1110,1112,1114,1116,1118,1120,1121,1122,1123,1124,1125,1126,1127,1128,1130,1150,1151,1152,1153,1154,1155,1156,1157,1158,1159,1160,1161,1162,1163,1164,1165,1167,1169,1171,1173,1175,1180,1300,1302,1304,1306,1308,1310,1312,1314,1316,1318,1320,1321,1322,1323,1324,1325,1326,1327,1328,1330,1330,1330,1330,1330,1330,1330,1330,1330,1330,1330,1330,1330,1330,1330,1330,1330,1330,1330,1330,1330,1330,1330,1330,1330,1330,1330,1330,1330,1330,1330,1330,1330,1330,1330,1330,1330,1330,1330,1330,1330,1330,1330,1330,1330,1330,1330,1330,1330,1330,1330,1330,1330,1330,1330,1330,1330,1330,1330,1330,1330,1330,1330,1330,1330,1330,1330,1330,1330,1330,1330,1330,1330,1330,1330,1330,1330,1330,1330,1330,1330,1330,1330,1330,1330,1330,1330,1330,1330,1330,1330,1330,1330,1330,1330,1330,1330,1330,1330,1330,1330,1330,1330,1330,1330,1330,1330,1330,1330,1330,1330,1330,1330,1330,1330,1330,1330,1330,1330,1330,1330,1330,1330,1330,1330,1330,1330,1330,1330,1330,1330,1330,1330,1330,1330,1330,1330,1330,1330,1330,1330,1330,1330,1330,1330,1330,1330,1330,1330,1330,1330,1330,1330,1330,1330,1330,1330,1330,1330,1330,1330,1330,1330,1330,1330,1330,1330,1330,1330,1330,1330,1330,1330,1330,1330,1330,1330,1330,1330,1330,1330,1330,1330,1330,1330,1330,1330,1330,1330,1330,1330,  % Bus 4
  620,621,622,624,626,628,630,632,634,636,638,640,642,643,644,645,647,649,651,653,655,660,740,744,746,748,750,752,754,756,758,760,762,764,766,768,770,772,774,776,778,780,800,801,802,804,806,808,810,812,814,816,818,820,822,823,824,825,827,829,831,833,835,840,980,984,986,988,990,992,994,996,998,1000,1002,1004,1006,1008,1010,1012,1014,1016,1018,1020,1020,1020,1020,1020,1020,1020,1020,1020,1020,1020,1020,1020,1020,1020,1020,1020,1020,1020,1020,1020,1020,1020,1020,1020,1020,1020,1020,1020,1020,1020,1020,1020,1020,1020,1020,1020,1020,1020,1020,1020,1020,1020,1020,1020,1020,1020,1020,1020,1020,1020,1020,1020,1020,1020,1020,1020,1020,1020,1020,1020,1020,1020,1020,1020,1020,1020,1020,1020,1020,1020,1020,1020,1020,1020,1020,1020,1020,1020,1020,1020,1020,1020,1020,1020,1020,1020,1020,1020,1020,1020,1020,1020,1020,1020,1020,1020,1020,1020,1020,1020,1020,1020,1020,1020,1020,1020,1020,1020,1020,1020,1020,1020,1020,1020,1020,1020,1020,1020,1020,1020,1020,1020,1020,1020,1020,1020,1020,1020,1020,1020,1020,1020,1020,1020,1020,1020,1020,1020,1020,1020,1020,1020,1020,1020,1020,1020,1020,1020,1020,1020,1020,1020,1020,1020,1020,1020,1020,1020,1020,1020,1020,1020,1020,1020,1020,1020,1020,1020,1020,1020,1020,1020,1020,1020,1020,1020,1020,1020,1020,1020,1020,1020,1020,1020,1020,1020,1020,1020,1020,1020,1020,1020,1020,1020,1020,1020,1020,1020,1020,1020,1020,1020,1020,1020,1020,1020,1020,1020,1020,1020,1020,1020,1020,1020,1020,1020,1020,1020,1020,1020,1020,1020,1020,1020,1020,1020,1020,1020,1020,1020,1020,1020,1020,1020,1020,1020,1020,1020,1020,1020,1020,1020,1020,1020,1020,1020,1020,1020,1020,1020,1020,1020,1020,1020,1020,1020,1020,1020,1020,1020,1020,1020,1020,1020,1020,1020,1020,1020,1020,1020,1020,1020,1020,1020,1020,1020,1020,1020,1020,1020,1020,1020,1020,1020,1020,1020,1020,1020,1020,1020,1020,1020,1020,1020,1020,1020,1020,1020,1020,1020,1020,1020,1020,1020,1020,1020,1020,1020,1020,1020,1020,1020,1020,1020,1020,1020,1020,1020,1020,1020,1020,1020,1020,1020,1020,1020,1020,1020,1020,1020,1020,1020,1020,1020,1020,1020,1020,1020,1020,1020,1020,1020,1020,1020,1020,1020,1020,1020,1020,1020,1020,1020,1020,1020,1020,1020,1020,1020,1020,1020,1020,1020,1020,1020,1020,1020,1020,1020,1020,1020,1020,1020,1020,1020,1020,1020,1020,1020,1020,1020,1020,1020,1020,1020,1020,1020,1020,1020,1020,1020,1020,1020,1020,1020,1020,1020,1020,1020,1020,1020,1020,1020,1020,1020,1020,1020,1020,1020,1020,1020,1020,1020,1020,1020,1020,1020,1020,1020,1020,1020,  % Bus 5
  620,624,626,628,630,632,634,636,638,640,642,644,646,648,650,652,654,656,658,660,700,701,702,704,706,708,710,712,714,716,718,720,722,723,724,725,727,729,731,733,735,740,800,804,806,808,810,812,814,816,818,820,822,824,826,828,830,832,834,836,838,840,960,961,962,964,966,968,970,972,974,976,978,980,982,983,984,985,987,989,991,993,995,1000,1000,1000,1000,1000,1000,1000,1000,1000,1000,1000,1000,1000,1000,1000,1000,1000,1000,1000,1000,1000,1000,1000,1000,1000,1000,1000,1000,1000,1000,1000,1000,1000,1000,1000,1000,1000,1000,1000,1000,1000,1000,1000,1000,1000,1000,1000,1000,1000,1000,1000,1000,1000,1000,1000,1000,1000,1000,1000,1000,1000,1000,1000,1000,1000,1000,1000,1000,1000,1000,1000,1000,1000,1000,1000,1000,1000,1000,1000,1000,1000,1000,1000,1000,1000,1000,1000,1000,1000,1000,1000,1000,1000,1000,1000,1000,1000,1000,1000,1000,1000,1000,1000,1000,1000,1000,1000,1000,1000,1000,1000,1000,1000,1000,1000,1000,1000,1000,1000,1000,1000,1000,1000,1000,1000,1000,1000,1000,1000,1000,1000,1000,1000,1000,1000,1000,1000,1000,1000,1000,1000,1000,1000,1000,1000,1000,1000,1000,1000,1000,1000,1000,1000,1000,1000,1000,1000,1000,1000,1000,1000,1000,1000,1000,1000,1000,1000,1000,1000,1000,1000,1000,1000,1000,1000,1000,1000,1000,1000,1000,1000,1000,1000,1000,1000,1000,1000,1000,1000,1000,1000,1000,1000,1000,1000,1000,1000,1000,1000,1000,1000,1000,1000,1000,1000,1000,1000,1000,1000,1000,1000,1000,1000,1000,1000,1000,1000,1000,1000,1000,1000,1000,1000,1000,1000,1000,1000,1000,1000,1000,1000,1000,1000,1000,1000,1000,1000,1000,1000,1000,1000,1000,1000,1000,1000,1000,1000,1000,1000,1000,1000,1000,1000,1000,1000,1000,1000,1000,1000,1000,1000,1000,1000,1000,1000,1000,1000,1000,1000,1000,1000,1000,1000,1000,1000,1000,1000,1000,1000,1000,1000,1000,1000,1000,1000,1000,1000,1000,1000,1000,1000,1000,1000,1000,1000,1000,1000,1000,1000,1000,1000,1000,1000,1000,1000,1000,1000,1000,1000,1000,1000,1000,1000,1000,1000,1000,1000,1000,1000,1000,1000,1000,1000,1000,1000,1000,1000,1000,1000,1000,1000,1000,1000,1000,1000,1000,1000,1000,1000,1000,1000,1000,1000,1000,1000,1000,1000,1000,1000,1000,1000,1000,1000,1000,1000,1000,1000,1000,1000,1000,1000,1000,1000,1000,1000,1000,1000,1000,1000,1000,1000,1000,1000,1000,1000,1000,1000,1000,1000,1000,1000,1000,1000,1000,1000,1000,1000,1000,1000,1000,1000,1000,1000,1000,1000,1000,1000,1000,1000,1000,1000,1000,1000,1000,1000,1000,1000,1000,1000,1000,1000,1000,1000,1000,1000,1000,1000,1000,1000,1000,1000  % Bus 6
]);
